5912648280441578647501,15,1,2,012,7,1,2,07,3,1,2,012,4,1,2,03,14,1,2,04,3,1,2,01,1,1,2,013,1,1,2,02,8,1,2,03,12,1,2,015,2,1,2,015,2,1,2,01,15,1,2,09,5,1,2,05,15,1,2,011,3,1,2,011,11,1,2,011,3,1,2,014,6,1,2,08,9,1,2,06,8,1,2,09,3,1,2,04,11,1,2,01,2,1,2,015,3,1,2,013,8,1,2,03,13,1,2,04,11,1,2,011,6,1,2,09,2,1,2,01,11,1,2,04,11,1,2,012,2,1,2,08,12,1,2,09,12,1,2,05,11,1,2,011,6,1,2,015,9,1,2,05,11,1,2,014,11,1,2,015,11,1,2,03,2,1,2,010,3,1,2,014,14,1,2,03,9,1,2,03,14,1,2,013,13,1,2,012,4,1,2,01,5,1,2,09,5,1,2,0